11
0 355 491 97 403 397 216 496 329 344 383 
355 0 254 176 461 244 385 455 73 89 115 
491 254 0 421 322 312 190 190 284 376 189 
97 176 421 0 233 407 92 479 204 123 458 
403 461 322 233 0 287 338 120 356 187 254 
397 244 312 407 287 0 456 100 190 438 80 
216 385 190 92 338 456 0 206 66 418 77 
496 455 190 479 120 100 206 0 226 332 106 
329 73 284 204 356 190 66 226 0 479 223 
344 89 376 123 187 438 418 332 479 0 386 
383 115 189 458 254 80 77 106 223 386 0 
